166
0 31 96 132 7 99 21 53 85 70 
130 160 90 122 114 129 74 78 81 103 
6 123 77 146 72 59 47 158 83 127 
39 15 24 9 137 101 19 143 11 5 
163 138 93 36 48 125 80 88 109 162 
55 106 2 144 111 38 150 86 82 105 
95 71 64 97 58 107 57 23 49 151 
44 145 18 142 140 37 40 120 12 76 
115 159 131 52 113 154 1 56 124 100 
62 116 102 156 112 89 110 157 126 108 
32 34 46 28 121 66 94 29 161 149 
164 4 35 117 42 73 20 128 84 65 
153 133 25 134 91 155 69 87 10 147 
54 119 61 22 17 3 139 79 118 50 
152 92 14 27 45 13 148 33 26 75 
30 68 43 67 16 63 136 98 51 60 
104 165 135 41 141 8 
